SCIP version 5.0.0 [precision: 8 byte] [memory: block] [mode: optimized] [LP solver: NONE] [GitHash: 3bbd232]
Copyright (C) 2002-2017 Konrad-Zuse-Zentrum fuer Informationstechnik Berlin (ZIB)

External codes: 
  Readline EditLine w  GNU library for command line editing (gnu.org/s/readline)
  CppAD 20160000.1     Algorithmic Differentiation of C++ algorithms developed by B. Bell (www.coin-or.org/CppAD)
  ZLIB 1.2.5           General purpose compression library by J. Gailly and M. Adler (zlib.net)
  GMP 6.1.2            GNU Multiple Precision Arithmetic Library developed by T. Granlund (gmplib.org)

user parameter file <scip.set> not found - using default parameters

read problem <../../Split_data/output/statG/4/1_sample_statG.logreg>
============

File name	:	../../Split_data/output/statG/4/1_sample_statG.logreg
Problem name 	:	1_sample_statG
Number of data	:	800
Number of var	:	61
The given data has linear dependence
13 sets of column vector are linearly dependent:

[dim=1] time: 0.034934
[dim=2] time: 0.078022
[dim=3] time: 0.118709
[dim=4] time: 0.157775
[dim=5] time: 0.198975
[dim=6] time: 0.241309
[dim=7] time: 0.283365
[dim=8] time: 0.324915
[dim=9] time: 0.367386
[dim=10] time: 0.413924
[dim=11] time: 0.458357
[dim=12] time: 0.501918
[dim=13] time: 0.543596
[dim=14] time: 0.584174
[dim=15] time: 0.625255
[dim=16] time: 0.664923
[dim=17] time: 0.703254
[dim=18] time: 0.749398
[dim=19] time: 0.789161
[dim=20] time: 0.834814
[dim=21] time: 0.876746
[dim=22] time: 0.929529
[dim=23] Time of forward = 0.977222sec.
AIC: 773.489
k: 22

[dim=48] time: 0.115883
[dim=47] time: 0.172541
[dim=46] time: 0.24512
[dim=45] time: 0.321574
[dim=44] time: 0.393547
[dim=43] time: 0.460192
[dim=42] time: 0.524237
[dim=41] time: 0.586266
[dim=40] time: 0.638461
[dim=39] time: 0.701824
[dim=38] time: 0.758932
[dim=37] time: 0.81011
[dim=36] time: 0.859593
[dim=35] time: 0.908356
[dim=34] time: 0.948476
[dim=33] time: 0.991157
[dim=32] time: 1.03594
[dim=31] time: 1.07659
[dim=30] time: 1.12203
[dim=29] time: 1.15885
[dim=28] Time of backward = 1.19478sec.
AIC: 778.219
k: 29
